UNSAT
The proof for unsat is:
([-6, -3] [-2, 3]) -> [-2, -6]
([-2, -6] [-1, 2]) -> [-1, -6]
([-1, -6] [1]) -> [-6]
([-6] [-5, 6, 7]) -> [-5, 7]
([-5, 7] [-1, 5]) -> [-1, 7]
([-1, 7] [1]) -> [7]
([7] [-7, -4]) -> [-4]
([-4] [-2, 4]) -> [-2]
([-2] [-1, 2]) -> [-1]
([-1] [1]) -> []
